p cnf 25 236
c At most one vertex at each position
-1 -2 0
-1 -3 0
-1 -4 0
-1 -5 0
-2 -3 0
-2 -4 0
-2 -5 0
-3 -4 0
-3 -5 0
-4 -5 0
-6 -7 0
-6 -8 0
-6 -9 0
-6 -10 0
-7 -8 0
-7 -9 0
-7 -10 0
-8 -9 0
-8 -10 0
-9 -10 0
-11 -12 0
-11 -13 0
-11 -14 0
-11 -15 0
-12 -13 0
-12 -14 0
-12 -15 0
-13 -14 0
-13 -15 0
-14 -15 0
-16 -17 0
-16 -18 0
-16 -19 0
-16 -20 0
-17 -18 0
-17 -19 0
-17 -20 0
-18 -19 0
-18 -20 0
-19 -20 0
-21 -22 0
-21 -23 0
-21 -24 0
-21 -25 0
-22 -23 0
-22 -24 0
-22 -25 0
-23 -24 0
-23 -25 0
-24 -25 0
c At least one edge at each position
1 2 3 4 5 0
6 7 8 9 10 0
11 12 13 14 15 0
16 17 18 19 20 0
21 22 23 24 25 0
c Each node appears in path
1 6 11 16 21 0
2 7 12 17 22 0
3 8 13 18 23 0
4 9 14 19 24 0
5 10 15 20 25 0
c Each node appears at most once in path
-1 -6 0
-1 -11 0
-1 -16 0
-1 -21 0
-6 -1 0
-6 -11 0
-6 -16 0
-6 -21 0
-11 -1 0
-11 -6 0
-11 -16 0
-11 -21 0
-16 -1 0
-16 -6 0
-16 -11 0
-16 -21 0
-21 -1 0
-21 -6 0
-21 -11 0
-21 -16 0
-2 -7 0
-2 -12 0
-2 -17 0
-2 -22 0
-7 -2 0
-7 -12 0
-7 -17 0
-7 -22 0
-12 -2 0
-12 -7 0
-12 -17 0
-12 -22 0
-17 -2 0
-17 -7 0
-17 -12 0
-17 -22 0
-22 -2 0
-22 -7 0
-22 -12 0
-22 -17 0
-3 -8 0
-3 -13 0
-3 -18 0
-3 -23 0
-8 -3 0
-8 -13 0
-8 -18 0
-8 -23 0
-13 -3 0
-13 -8 0
-13 -18 0
-13 -23 0
-18 -3 0
-18 -8 0
-18 -13 0
-18 -23 0
-23 -3 0
-23 -8 0
-23 -13 0
-23 -18 0
-4 -9 0
-4 -14 0
-4 -19 0
-4 -24 0
-9 -4 0
-9 -14 0
-9 -19 0
-9 -24 0
-14 -4 0
-14 -9 0
-14 -19 0
-14 -24 0
-19 -4 0
-19 -9 0
-19 -14 0
-19 -24 0
-24 -4 0
-24 -9 0
-24 -14 0
-24 -19 0
-5 -10 0
-5 -15 0
-5 -20 0
-5 -25 0
-10 -5 0
-10 -15 0
-10 -20 0
-10 -25 0
-15 -5 0
-15 -10 0
-15 -20 0
-15 -25 0
-20 -5 0
-20 -10 0
-20 -15 0
-20 -25 0
-25 -5 0
-25 -10 0
-25 -15 0
-25 -20 0
c Prevent illegal steps
-1 -6 0
-6 -11 0
-11 -16 0
-16 -21 0
-1 -7 0
-6 -12 0
-11 -17 0
-16 -22 0
-1 -9 0
-6 -14 0
-11 -19 0
-16 -24 0
-2 -6 0
-7 -11 0
-12 -16 0
-17 -21 0
-2 -7 0
-7 -12 0
-12 -17 0
-17 -22 0
-2 -8 0
-7 -13 0
-12 -18 0
-17 -23 0
-2 -9 0
-7 -14 0
-12 -19 0
-17 -24 0
-3 -6 0
-8 -11 0
-13 -16 0
-18 -21 0
-3 -7 0
-8 -12 0
-13 -17 0
-18 -22 0
-3 -8 0
-8 -13 0
-13 -18 0
-18 -23 0
-4 -6 0
-9 -11 0
-14 -16 0
-19 -21 0
-4 -8 0
-9 -13 0
-14 -18 0
-19 -23 0
-4 -9 0
-9 -14 0
-14 -19 0
-19 -24 0
-4 -10 0
-9 -15 0
-14 -20 0
-19 -25 0
-5 -6 0
-10 -11 0
-15 -16 0
-20 -21 0
-5 -7 0
-10 -12 0
-15 -17 0
-20 -22 0
-5 -8 0
-10 -13 0
-15 -18 0
-20 -23 0
-5 -9 0
-10 -14 0
-15 -19 0
-20 -24 0
-5 -10 0
-10 -15 0
-15 -20 0
-20 -25 0
